Route #1: 46 130 214 213 297 381 465 548 547 631 632 716 715 799 800 801 802 803 719 718 717 633 634 635 551 552 385 301 218 135 54
Route #2: 63 141 140 139 138 137 220 219 303 304 305 389 388 387 471 472 473 557 641 642 726 725 724 723 722 638 639 640 556 555 554 469 468 467 383 384 300 216 132 133 52 53
Route #3: 66 65 64 62 61 60 59 58 57 56 134 217 302 386 470 553 636 637 721 720 804 805 806 807 808 809 810 811 812 728 644 645 562 479 396 312 313 229 70
Route #4: 55 136 221 222 223 307 306 390 391 392 475 474 558 559 643 727 729 813 814 815 731 730 646 561 560 476 477 393 309 308 224 225 142 143 67 68 69 71 72 73 74 75 76 77 79
Route #5: 78 152 151 150 149 148 147 146 145 144 228 227 226 310 311 395 394 478 563 647 648 732 816 817 818 819 820 821 822 738 654 653 568 484 401 402 403 404 320 321 322 239 158 159
Route #6: 156 155 154 153 235 234 233 232 231 230 314 315 398 397 481 480 564 565 649 733 734 735 736 737 652 651 650 566 567 483 482 399 400 316 317 318 319 236 237 238 157
Route #7: 83 82 81 80 160 242 241 240 323 407 406 405 489 488 487 486 485 569 570 571 655 739 823 824 740 741 825 826 827 828 744 660 661 577 492 408 324 325 326 243 161 162 163
Route #8: 167 250 333 334 418 417 416 500 499 498 497 496 495 494 493 576 575 659 743 742 658 657 656 572 573 574 490 491 409 410 411 412 413 329 330 331 247 248 165
Route #9: 166 249 332 415 414 581 582 583 584 667 666 665 664 747 748 749 833 832 831 830 829 745 746 662 663 580 579 578 327 328 244 245 246 164
Route #10: 251 335 419 502 501 585 668 752 751 750 834 835 836 837 838 839 756 757 758 759 760 761 762 678 594 510 509 508 424 339 255 170 86
Route #11: 84 168 252 253 337 336 421 420 503 586 587 671 670 669 753 754 755 672 673 674 675 676 677 593 592 591 590 589 588 504 505 506 507 423 422 338 254 169 85
Route #12: 87 172 173 257 258 342 343 344 428 429 513 514 515 516 600 599 598 597 596 680 681 682 683 684 685 601 517 518 519 520 436 435 351 266 265 264 181 180 179 178 93
Route #13: 89 90 91 176 175 174 259 260 261 345 346 430 431 432 433 434 350 349 348 347 263 262 177 92
Route #14: 96 183 268 269 354 355 356 440 439 523 522 605 604 603 602 686 770 769 768 767 766 765 764 763 679 595 511 512 427 426 425 341 340 256 171 88
Route #15: 97 184 185 270 271 272 357 441 524 608 607 691 692 693 777 776 775 774 773 772 771 687 688 689 690 606 521 437 438 353 352 267 182 95 94
Route #16: 2 4 6 8 101 186 273 358 442 526 525 609 610 611 612 696 695 694 778 779 780 781 782 698 697 613 614 530 529 528 527 443 359 274 190 105
Route #17: 107 108 109 194 278 363 447 532 533 534 619 618 617 701 702 703 787 786 785 784 783 699 700 616 615 531 446 445 444 360 275 191 106 14 13 12 11 10 9 7 5 3 1
Route #18: 102 103 104 192 193 195 196 197 198 282 281 280 279 364 365 366 367 283 201 202 203 204 119 118 117 33 32 31 30 29 28 27 26 25 24 22 21 20 19 18 17 16 15
Route #19: 98 99 100 187 188 189 276 277 361 362 448 449 450 451 535 537 621 705 706 707 623 622 538 539 540 456 455 454 453 369 370 286 285 200 115 114 113 112 111 110 23
Route #20: 34 121 206 292 376 460 545 546 630 714 798 797 796 795 794 793 792 791 790 789 788 704 620 536 452 368 284 199 116
Route #21: 35 120 205 290 291 459 458 457 541 625 624 708 709 710 711 712 713 629 628 627 626 542 543 544 461 378 379 380 298 299 215 131 47 48 49 50 51
Route #22: 36 37 122 123 124 125 126 209 208 207 289 288 287 371 372 373 374 375 377 462 463 464 549 550 466 382 296 295 294 293 210 211 212 127 128 129 45 44 43 42 41 40 39 38
Cost 18404
